CMD:
./solvers/bin/cadical --plain --no-reduce -t 1600 ./data/cnfs//picorv32_mutBY_nomem-p7/picorv32_mutBY_nomem-p7.43.cnf

c --- [ banner ] -------------------------------------------------------------
c 
c CaDiCaL SAT Solver
c Copyright (c) 2016-2024
c A. Biere, M. Fleury, N. Froleyks, K. Fazekas, F. Pollitt, T. Faller
c JKU Linz, University of Freiburg, TU Wien
c 
c Version 2.1.3 5296d3d2a9bf48c154ab2acb5e44625776d821bf
c g++ (Gentoo 12.3.1_p20230526 p2) 12.3.1 20230526 -Wall -Wextra -O3 -DNDEBUG
c Sat Aug 9 07:26:21 PDT 2025 Linux cedar2.int.cedar.computecanada.ca 5.14.0-362.24.2.el9_3.x86_64 x86_64
c 
c --- [ limit ] --------------------------------------------------------------
c 
c setting time limit to 1600 seconds real time (due to '-t 1600')
c 
c --- [ parsing input ] ------------------------------------------------------
c 
c reading DIMACS file from './data/cnfs//picorv32_mutBY_nomem-p7/picorv32_mutBY_nomem-p7.43.cnf'
c opening file to read './data/cnfs//picorv32_mutBY_nomem-p7/picorv32_mutBY_nomem-p7.43.cnf'
c found 'p cnf 2147682 6327005' header
c parsed 6327005 clauses in 1.02 seconds process time
c 
c --- [ options ] ------------------------------------------------------------
c 
c   --compact=false                (different from default 'true')
c   --decompose=false              (different from default 'true')
c   --deduplicate=false            (different from default 'true')
c   --elim=false                   (different from default 'true')
c   --probe=false                  (different from default 'true')
c   --reduce=false                 (different from default 'true')
c   --subsume=false                (different from default 'true')
c   --ternary=false                (different from default 'true')
c   --transred=false               (different from default 'true')
c   --vivify=false                 (different from default 'true')
c 
c --- [ solving ] ------------------------------------------------------------
c 
c time measured in process time since initialization
c 
c  seconds   reductions  redundant   irredundant
c          MB    restarts       trail         variables
c           level   conflicts       glue            remaining
c 
c *  1.02 974  0 0   0    0    0  0% 0 6096214 1990690 93%
c {  1.28 1003  0 0   0    0    0  0% 0 6096214 1990690 93%
c i  1.42 1003 250 0   0  113  101 12% 3 6096214 1990470 93%
c i  1.70 1003 209 0  10  175  142 13% 4 6096214 1977454 92%
c i  1.77 1003 198 0  13  207  169 13% 4 6096214 1977453 92%
c i  1.78 1003 192 0  13  264  214 14% 4 6096214 1977448 92%
c i  1.79 1003 185 0  13  293  239 15% 4 6096214 1977447 92%
c i  1.87 1003 166 0  13  439  364 14% 4 6096214 1977445 92%
c i  1.88 1003 166 0  13  441  364 14% 4 6096214 1965017 91%
c i  1.96 1003 143 0  13  560  463 13% 3 6096214 1964571 91%
c i  2.03 1003 118 0  25  721  612 13% 3 6096214 1964490 91%
c i  2.03 1003 117 0  25  723  613 13% 3 6096214 1964486 91%
c }  2.11 1003 94 0  25 1001  863 12% 3 6096214 1964486 91%
c [  2.11 1003  0 0  25 1001  863  0% 0 6096214 1964486 91%
c O  2.19 1003 3932 0  25 1002  864 16% 2 6096214 1964486 91%
c i  2.62 1003 30243 0  25 1058  912 92% 3 6096214 1964485 91%
c i  4.74 1004 25138 0  26 2248 1998 82% 7 6096214 1964484 91%
c i  4.76 1004 23708 0  26 2321 2063 79% 7 6096214 1964483 91%
c i  4.76 1004 23025 0  26 2362 2094 77% 7 6096214 1964482 91%
c i  4.93 1004 19781 0  26 2582 2289 68% 8 6096214 1952552 91%
c 
c  seconds       reductions  redundant   irredundant
c          MB        restarts       trail         variables
c              level    conflicts       glue            remaining
c 
c ]  5.12 1004 15569 0  26 3001 2665 58% 9 6096214 1952552 91%
c {  5.12 1004 94 0  26 3001 2665 12% 3 6096214 1952552 91%
c F  5.17 1004 95 0  27 3004 2668 12% 3 6096214 1951623 91%
c i  5.24 1004 87 0  31 3135 2790 12% 3 6096214 1939110 90%
c i  5.27 1004 84 0  31 3174 2826 12% 3 6096214 1938993 90%
c i  5.27 1004 84 0  31 3175 2826 12% 3 6096214 1938986 90%
c i  5.34 1004 76 0  31 3318 2953 12% 3 6096214 1938983 90%
c i  5.37 1004 72 0  31 3400 3022 12% 3 6096214 1938982 90%
c i  5.37 1004 72 0  31 3401 3022 12% 3 6096214 1938978 90%
c i  5.37 1004 72 0  31 3404 3023 12% 3 6096214 1938974 90%
c i  5.38 1004 71 0  31 3436 3053 12% 3 6096214 1938973 90%
c i  5.40 1004 70 0  33 3465 3079 12% 3 6096214 1938713 90%
c i  5.42 1004 68 0  33 3506 3118 12% 3 6096214 1938693 90%
c i  5.42 1004 68 0  33 3507 3118 12% 3 6096214 1938647 90%
c i  5.42 1004 68 0  33 3513 3122 12% 3 6096214 1938634 90%
c i  5.56 1005 70 0  33 3560 3166 12% 3 6096214 1938536 90%
c i  6.26 1006 87 0  59 3919 3491 15% 3 6096214 1938527 90%
c i  6.31 1006 86 0  61 3957 3523 15% 3 6096214 1938526 90%
c i  6.31 1006 86 0  64 3971 3535 15% 3 6096214 1938525 90%
c i  6.38 1006 82 0  65 4140 3680 15% 3 6096214 1938523 90%
c 
c  seconds    reductions  redundant   irredundant
c          MB     restarts       trail         variables
c            level   conflicts       glue            remaining
c 
c i  6.38 1006 81 0  65 4159 3694 15% 3 6096214 1938519 90%
c i  6.49 1007 79 0  70 4292 3815 15% 3 6096214 1938518 90%
c i  6.62 1007 79 0  82 4348 3866 15% 3 6096214 1938516 90%
c i  6.68 1007 78 0  98 4488 3998 15% 3 6096214 1938515 90%
... skipped 240129 lines ...
v -2147282 -2147283 2147284 -2147285 -2147286 -2147287 -2147288 -2147289
v -2147290 -2147291 -2147292 -2147293 -2147294 -2147295 -2147296 -2147297
v 2147298 -2147299 -2147300 -2147301 -2147302 2147303 -2147304 -2147305
v -2147306 -2147307 2147308 -2147309 -2147310 -2147311 -2147312 -2147313
v 2147314 -2147315 -2147316 -2147317 -2147318 2147319 -2147320 2147321
v -2147322 -2147323 2147324 -2147325 -2147326 -2147327 -2147328 2147329
v -2147330 2147331 -2147332 -2147333 -2147334 2147335 2147336 2147337 -2147338
v -2147339 2147340 -2147341 -2147342 2147343 -2147344 -2147345 -2147346
v 2147347 -2147348 -2147349 2147350 -2147351 -2147352 -2147353 -2147354
v -2147355 -2147356 2147357 -2147358 -2147359 -2147360 2147361 -2147362
v -2147363 -2147364 -2147365 -2147366 2147367 -2147368 2147369 -2147370
v -2147371 2147372 -2147373 -2147374 2147375 2147376 -2147377 -2147378 2147379
v -2147380 2147381 -2147382 -2147383 2147384 -2147385 -2147386 2147387 2147388
v -2147389 -2147390 -2147391 -2147392 2147393 -2147394 -2147395 2147396
v -2147397 -2147398 2147399 -2147400 -2147401 2147402 -2147403 -2147404
v 2147405 -2147406 -2147407 2147408 -2147409 -2147410 2147411 -2147412
v -2147413 2147414 -2147415 -2147416 2147417 -2147418 -2147419 2147420
v -2147421 -2147422 2147423 -2147424 -2147425 2147426 -2147427 -2147428
v 2147429 -2147430 -2147431 2147432 -2147433 -2147434 2147435 -2147436
v -2147437 2147438 -2147439 -2147440 2147441 -2147442 -2147443 2147444
v -2147445 -2147446 2147447 -2147448 -2147449 2147450 -2147451 -2147452
v 2147453 -2147454 -2147455 2147456 -2147457 -2147458 2147459 -2147460
v -2147461 2147462 -2147463 -2147464 2147465 -2147466 -2147467 2147468
v -2147469 -2147470 2147471 -2147472 -2147473 2147474 -2147475 -2147476
v 2147477 -2147478 -2147479 2147480 -2147481 -2147482 2147483 -2147484
v -2147485 -2147486 -2147487 2147488 -2147489 -2147490 2147491 -2147492
v -2147493 2147494 -2147495 -2147496 -2147497 2147498 2147499 -2147500
v -2147501 -2147502 -2147503 2147504 -2147505 -2147506 -2147507 2147508
v 2147509 -2147510 -2147511 -2147512 2147513 2147514 -2147515 -2147516 2147517
v -2147518 -2147519 2147520 -2147521 -2147522 2147523 -2147524 -2147525
v 2147526 -2147527 -2147528 2147529 -2147530 -2147531 2147532 -2147533
v -2147534 2147535 -2147536 -2147537 2147538 -2147539 -2147540 2147541
v -2147542 -2147543 2147544 -2147545 -2147546 2147547 -2147548 -2147549
v 2147550 -2147551 -2147552 2147553 -2147554 -2147555 2147556 -2147557
v -2147558 2147559 -2147560 -2147561 2147562 -2147563 -2147564 2147565
v -2147566 -2147567 2147568 -2147569 -2147570 2147571 -2147572 -2147573
v 2147574 -2147575 -2147576 2147577 -2147578 -2147579 2147580 -2147581
v -2147582 2147583 -2147584 -2147585 2147586 -2147587 -2147588 2147589
v -2147590 -2147591 2147592 -2147593 -2147594 2147595 -2147596 -2147597
v 2147598 -2147599 -2147600 2147601 -2147602 -2147603 2147604 -2147605
v -2147606 2147607 -2147608 -2147609 -2147610 -2147611 2147612 -2147613
v -2147614 2147615 -2147616 -2147617 -2147618 -2147619 2147620 -2147621
v -2147622 -2147623 2147624 -2147625 -2147626 2147627 -2147628 -2147629
v 2147630 2147631 -2147632 2147633 -2147634 2147635 -2147636 -2147637 2147638
v -2147639 -2147640 2147641 -2147642 -2147643 -2147644 2147645 -2147646
v -2147647 2147648 -2147649 -2147650 -2147651 2147652 -2147653 2147654
v -2147655 -2147656 -2147657 2147658 -2147659 -2147660 -2147661 -2147662
v 2147663 -2147664 -2147665 -2147666 -2147667 2147668 -2147669 -2147670
v -2147671 -2147672 -2147673 2147674 -2147675 -2147676 -2147677 -2147678
v 2147679 -2147680 2147681 -2147682 0
c 
c --- [ run-time profiling ] -------------------------------------------------
c 
c process time taken by individual solving procedures
c (percentage relative to process time for solving)
c 
c       153.37  100.00% search
c       114.68   74.77% stable
c        34.15   22.26% unstable
c         4.28    2.79% walk
c         1.02    0.66% parse
c         0.26    0.17% lucky
c         0.00    0.00% simplify
c   =================================
c       153.37   99.28% solve
c 
c last line shows process time for solving
c (percentage relative to total process time)
c 
c --- [ statistics ] ---------------------------------------------------------
c 
c chronological:             28290        43.60 %  of conflicts
c conflicts:                 64889       423.09    per second
c decisions:                435154      2837.28    per second
c fixed:                    212962         9.92 %  of all variables
c learned:                   61794        95.23 %  per conflict
c learned_lits:            7341241       100.00 %  learned literals
c minimized:                     0         0.00 %  learned literals
c shrunken:                 680802         9.27 %  learned literals
c minishrunken:            1380538        18.81 %  learned literals
c otfs:                        441         0.68 %  of conflict
c propagations:         1586466393        10.34 M  per second
c rephased:                     10      6488.90    interval
c restarts:                   2581        25.14    interval
c stabilizing:                   3        64.73 %  of conflicts
c subsumed:                   2033         0.03 %  of all clauses
c strengthened:                438         0.01 %  of all clauses
c walked:                        2     32444.50    interval
c 
c seconds are measured in process time for solving
c 
c --- [ resources ] ----------------------------------------------------------
c 
c total process time since initialization:       154.49    seconds
c total real time since initialization:          155.84    seconds
c maximum resident set size of process:         1257.89    MB
c 
c --- [ shutting down ] ------------------------------------------------------
c 
c exit 10
